instances/shortest_path/discrete_knapsack_uncertainty/nohadani_6_18.kp
97979
116

[1.7486777690695017 1.160560449459505 2.9333244576373825 3.8004318543327376 3.6292265892677147 2.67312811361193 4.666787271468053 3.331730566035934 4.71385994989959 0.9962683618998265 3.2537024994352706 0.5014733771193133 2.2147435134290885 1.8427363758415438 1.5294286242871529 3.3810788273517765 3.995995653025564 1.2038180116529842 4.711799065193093 2.260695471987561 0.1833833023470765 0.4598706280150068 3.5571197142810544 1.5934441518430538]

[74 83 65 54 59 24 16 30 68 81 10 10 91 19 27 7 92 91 84 29 72 62 87 45]
